3 3 2
25 2 45 1 26 2 27 0 36 1 39 2 44 1 11 0 32 2 1 0 2 2 85 1 91 0 68 2 87 1 53 0 55 2 70 1 4 2 25 1 35 0 60 2 32 1 5 0 94 2 13 
25 1 60 0 96 1 7 2 87 1 2 0 90 1 26 0 65 2 43 0 17 2 32 1 3 0 81 2 9 0 19 2 54 0 16 2 36 0 73 2 45 1 51 0 91 1 54 2 36 1 15 
25 0 91 2 92 0 68 1 18 0 23 1 53 0 0 2 22 1 58 2 83 0 74 1 75 2 59 1 96 2 23 1 61 0 67 1 96 2 97 0 12 1 30 0 55 1 92 2 48 0 61 

-------------
